; chc-comp19-benchmarks/./lra-ts/chc-lra-ts-0120_000.smt2
(set-logic HORN)

(declare-fun |state| ( Bool Bool Bool Bool Real Real Real Real Real Real Real Real Real Real Real Real Real Real Real Real Real Real Real Real Real Real Real Real Real Real Real Real Real ) Bool)

(assert
  (forall ( (A Bool) (B Bool) (C Bool) (D Bool) (E Real) (F Real) (G Real) (H Real) (I Real) (J Real) (K Real) (L Real) (M Real) (N Real) (O Real) (P Real) (Q Real) (R Real) (S Real) (T Real) (U Real) (V Real) (W Real) (X Real) (Y Real) (Z Real) (A1 Real) (B1 Real) (C1 Real) (D1 Real) (E1 Real) (F1 Real) (G1 Real) ) 
    (=>
      (and
        (and (not C) (not B) (not A) (not D))
      )
      (state A B C D E F G H I J K L M N O P Q R S T U V W X Y Z A1 B1 C1 D1 E1 F1 G1)
    )
  )
)
(assert
  (forall ( (A Bool) (B Bool) (C Bool) (D Bool) (E Real) (F Real) (G Real) (H Real) (I Real) (J Real) (K Real) (L Real) (M Real) (N Real) (O Real) (P Real) (Q Real) (R Real) (S Real) (T Real) (U Real) (V Real) (W Real) (X Real) (Y Real) (Z Real) (A1 Real) (B1 Real) (C1 Real) (D1 Real) (E1 Real) (F1 Real) (G1 Real) (H1 Real) (I1 Real) (J1 Real) (K1 Real) (L1 Real) (M1 Real) (N1 Real) (O1 Real) (P1 Real) (Q1 Real) (R1 Real) (S1 Real) (T1 Real) (U1 Real) (V1 Real) (W1 Real) (X1 Real) (Y1 Real) (Z1 Real) (A2 Real) (B2 Real) (C2 Real) (D2 Real) (E2 Real) (F2 Real) (G2 Real) (H2 Real) (I2 Real) (J2 Real) (K2 Real) (L2 Bool) (M2 Bool) (N2 Bool) (O2 Bool) (P2 Real) (Q2 Real) (R2 Real) (S2 Real) (T2 Real) (U2 Real) (V2 Real) (W2 Real) (X2 Real) ) 
    (=>
      (and
        (state A B C D E F G H I J K L M N O P Q R S T U V W X Y Z A1 B1 C1 D1 E1 F1 G1)
        (let ((a!1 (and (= Z1 S2)
                (= B2 E1)
                (not (= B2 0.0))
                (= B2 7.0)
                (not (= B2 6.0))
                (not (= B2 5.0))
                (not (= B2 4.0))
                (not (= B2 3.0))
                (not (= B2 2.0))
                (not (= B2 1.0))
                (= R U2)
                (= (+ Z1 (* (- 1.0) E1)) 1.0)))
      (a!2 (and (= Z1 U2)
                (= B2 E1)
                (not (= B2 0.0))
                (= B2 8.0)
                (not (= B2 7.0))
                (not (= B2 6.0))
                (not (= B2 5.0))
                (not (= B2 4.0))
                (not (= B2 3.0))
                (not (= B2 2.0))
                (not (= B2 1.0))
                (= Q S2)
                (= (+ Z1 (* (- 1.0) E1)) 1.0)))
      (a!3 (and (= Z1 V2)
                (= B2 E1)
                (not (= B2 0.0))
                (= B2 6.0)
                (not (= B2 5.0))
                (not (= B2 4.0))
                (not (= B2 3.0))
                (not (= B2 2.0))
                (not (= B2 1.0))
                (= Q S2)
                (= R U2)
                (= (+ Z1 (* (- 1.0) E1)) 1.0)))
      (a!5 (and (= Z1 X2)
                (= B2 E1)
                (not (= B2 0.0))
                (= B2 5.0)
                (not (= B2 4.0))
                (not (= B2 3.0))
                (not (= B2 2.0))
                (not (= B2 1.0))
                (= P V2)
                (= Q S2)
                (= R U2)
                (= (+ Z1 (* (- 1.0) E1)) 1.0)))
      (a!6 (and (= Z1 R2)
                (= B2 E1)
                (not (= B2 0.0))
                (= B2 4.0)
                (not (= B2 3.0))
                (not (= B2 2.0))
                (not (= B2 1.0))
                (= O X2)
                (= P V2)
                (= Q S2)
                (= R U2)
                (= (+ Z1 (* (- 1.0) E1)) 1.0)))
      (a!8 (and (= Z1 Q2)
                (= B2 E1)
                (not (= B2 0.0))
                (= B2 3.0)
                (not (= B2 2.0))
                (not (= B2 1.0))
                (= N R2)
                (= O X2)
                (= P V2)
                (= Q S2)
                (= R U2)
                (= (+ Z1 (* (- 1.0) E1)) 1.0)))
      (a!9 (and (= Z1 T2)
                (= B2 E1)
                (not (= B2 0.0))
                (= B2 2.0)
                (not (= B2 1.0))
                (= M Q2)
                (= N R2)
                (= O X2)
                (= P V2)
                (= Q S2)
                (= R U2)
                (= (+ Z1 (* (- 1.0) E1)) 1.0)))
      (a!11 (and (= Z1 W2)
                 (= B2 E1)
                 (not (= B2 0.0))
                 (= B2 1.0)
                 (= L T2)
                 (= M Q2)
                 (= N R2)
                 (= O X2)
                 (= P V2)
                 (= Q S2)
                 (= R U2)
                 (= (+ Z1 (* (- 1.0) E1)) 1.0)))
      (a!12 (and (= Z1 P2)
                 (= B2 E1)
                 (= B2 0.0)
                 (= K W2)
                 (= L T2)
                 (= M Q2)
                 (= N R2)
                 (= O X2)
                 (= P V2)
                 (= Q S2)
                 (= R U2)
                 (= (+ Z1 (* (- 1.0) E1)) 1.0)))
      (a!13 (or (= G1 0.0)
                (= G1 8.0)
                (= G1 7.0)
                (= G1 6.0)
                (= G1 5.0)
                (= G1 4.0)
                (= G1 3.0)
                (= G1 2.0)
                (= G1 1.0)))
      (a!32 (and (= X1 Z1)
                 (= B2 E1)
                 (not (= B2 0.0))
                 (= B2 7.0)
                 (not (= B2 6.0))
                 (not (= B2 5.0))
                 (not (= B2 4.0))
                 (not (= B2 3.0))
                 (not (= B2 2.0))
                 (not (= B2 1.0))
                 (= R Y1)
                 (= (+ Z1 (* (- 1.0) E1)) 1.0)))
      (a!33 (and (= Y1 Z1)
                 (= B2 E1)
                 (not (= B2 0.0))
                 (= B2 8.0)
                 (not (= B2 7.0))
                 (not (= B2 6.0))
                 (not (= B2 5.0))
                 (not (= B2 4.0))
                 (not (= B2 3.0))
                 (not (= B2 2.0))
                 (not (= B2 1.0))
                 (= Q X1)
                 (= (+ Z1 (* (- 1.0) E1)) 1.0)))
      (a!34 (and (= W1 Z1)
                 (= B2 E1)
                 (not (= B2 0.0))
                 (= B2 6.0)
                 (not (= B2 5.0))
                 (not (= B2 4.0))
                 (not (= B2 3.0))
                 (not (= B2 2.0))
                 (not (= B2 1.0))
                 (= Q X1)
                 (= R Y1)
                 (= (+ Z1 (* (- 1.0) E1)) 1.0)))
      (a!36 (and (= V1 Z1)
                 (= B2 E1)
                 (not (= B2 0.0))
                 (= B2 5.0)
                 (not (= B2 4.0))
                 (not (= B2 3.0))
                 (not (= B2 2.0))
                 (not (= B2 1.0))
                 (= P W1)
                 (= Q X1)
                 (= R Y1)
                 (= (+ Z1 (* (- 1.0) E1)) 1.0)))
      (a!37 (and (= B2 E1)
                 (not (= B2 0.0))
                 (= B2 4.0)
                 (not (= B2 3.0))
                 (not (= B2 2.0))
                 (not (= B2 1.0))
                 (= O V1)
                 (= P W1)
                 (= Q X1)
                 (= R Y1)
                 (= U1 Z1)
                 (= (+ Z1 (* (- 1.0) E1)) 1.0)))
      (a!39 (and (= B2 E1)
                 (not (= B2 0.0))
                 (= B2 3.0)
                 (not (= B2 2.0))
                 (not (= B2 1.0))
                 (= N U1)
                 (= O V1)
                 (= P W1)
                 (= Q X1)
                 (= R Y1)
                 (= T1 Z1)
                 (= (+ Z1 (* (- 1.0) E1)) 1.0)))
      (a!40 (and (= B2 E1)
                 (not (= B2 0.0))
                 (= B2 2.0)
                 (not (= B2 1.0))
                 (= M T1)
                 (= N U1)
                 (= O V1)
                 (= P W1)
                 (= Q X1)
                 (= R Y1)
                 (= S1 Z1)
                 (= (+ Z1 (* (- 1.0) E1)) 1.0)))
      (a!42 (and (= B2 E1)
                 (not (= B2 0.0))
                 (= B2 1.0)
                 (= L S1)
                 (= M T1)
                 (= N U1)
                 (= O V1)
                 (= P W1)
                 (= Q X1)
                 (= R Y1)
                 (= R1 Z1)
                 (= (+ Z1 (* (- 1.0) E1)) 1.0)))
      (a!43 (and (= B2 E1)
                 (= B2 0.0)
                 (= K R1)
                 (= L S1)
                 (= M T1)
                 (= N U1)
                 (= O V1)
                 (= P W1)
                 (= Q X1)
                 (= R Y1)
                 (= I1 Z1)
                 (= (+ Z1 (* (- 1.0) E1)) 1.0)))
      (a!54 (or (and (= H2 0.0) (= G H2) (= O1 F1))
                (and (not (= H2 0.0)) (= H2 1.0) (= G H2) (= O1 K))
                (and (not (= H2 0.0))
                     (= H2 2.0)
                     (not (= H2 1.0))
                     (= G H2)
                     (= O1 L))
                (and (not (= H2 0.0))
                     (= H2 3.0)
                     (not (= H2 2.0))
                     (not (= H2 1.0))
                     (= G H2)
                     (= O1 M))
                (and (not (= H2 0.0))
                     (= H2 4.0)
                     (not (= H2 3.0))
                     (not (= H2 2.0))
                     (not (= H2 1.0))
                     (= G H2)
                     (= O1 N))
                (and (not (= H2 0.0))
                     (= H2 5.0)
                     (not (= H2 4.0))
                     (not (= H2 3.0))
                     (not (= H2 2.0))
                     (not (= H2 1.0))
                     (= G H2)
                     (= O1 O))
                (and (not (= H2 0.0))
                     (= H2 6.0)
                     (not (= H2 5.0))
                     (not (= H2 4.0))
                     (not (= H2 3.0))
                     (not (= H2 2.0))
                     (not (= H2 1.0))
                     (= G H2)
                     (= O1 P))
                (and (not (= H2 0.0))
                     (= H2 7.0)
                     (not (= H2 6.0))
                     (not (= H2 5.0))
                     (not (= H2 4.0))
                     (not (= H2 3.0))
                     (not (= H2 2.0))
                     (not (= H2 1.0))
                     (= G H2)
                     (= O1 Q))
                (and (not (= H2 0.0))
                     (= H2 8.0)
                     (not (= H2 7.0))
                     (not (= H2 6.0))
                     (not (= H2 5.0))
                     (not (= H2 4.0))
                     (not (= H2 3.0))
                     (not (= H2 2.0))
                     (not (= H2 1.0))
                     (= G H2)
                     (= O1 R))))
      (a!59 (and A
                 (not B)
                 (not C)
                 (not D)
                 (not L2)
                 (not M2)
                 N2
                 (not O2)
                 (= B2 E1)
                 (not (= B2 0.0))
                 (not (= B2 8.0))
                 (not (= B2 7.0))
                 (not (= B2 6.0))
                 (not (= B2 5.0))
                 (not (= B2 4.0))
                 (not (= B2 3.0))
                 (not (= B2 2.0))
                 (not (= B2 1.0))
                 (= E L1)
                 (= F M1)
                 (= G N1)
                 (= H O1)
                 (= I P1)
                 (= J Q1)
                 (= K R1)
                 (= L S1)
                 (= M T1)
                 (= N U1)
                 (= O V1)
                 (= P W1)
                 (= Q X1)
                 (= R Y1)
                 (= T A2)
                 (= V C2)
                 (= W D2)
                 (= X E2)
                 (= Y F2)
                 (= Z G2)
                 (= A1 H2)
                 (= B1 I2)
                 (= C1 J2)
                 (= D1 K2)
                 (= H1 E1)
                 (= I1 F1)
                 (= J1 G1)
                 (= (+ Z1 (* (- 1.0) E1)) 1.0))))
(let ((a!4 (and (or (and (or a!1 a!2) (= P V2)) a!3) (= O X2)))
      (a!35 (and (or (and (or a!32 a!33) (= P W1)) a!34) (= O V1)))
      (a!55 (or (and a!54 (not (<= P1 Z)) (= G F2) (= O1 P1) (= P1 G2))
                (and a!54 (<= P1 Z) (= Y F2) (= Z G2) (= O1 P1)))))
(let ((a!7 (and (or (and (or a!4 a!5) (= N R2)) a!6) (= M Q2)))
      (a!38 (and (or (and (or a!35 a!36) (= N U1)) a!37) (= M T1)))
      (a!56 (and A
                 (not B)
                 C
                 (not D)
                 (not L2)
                 M2
                 (not N2)
                 O2
                 a!55
                 (not (<= 9.0 N1))
                 (= E L1)
                 (= F M1)
                 (= J Q1)
                 (= K R1)
                 (= L S1)
                 (= M T1)
                 (= N U1)
                 (= O V1)
                 (= P W1)
                 (= Q X1)
                 (= R Y1)
                 (= S Z1)
                 (= T A2)
                 (= U B2)
                 (= V C2)
                 (= W D2)
                 (= X E2)
                 (= B1 I2)
                 (= C1 J2)
                 (= D1 K2)
                 (= H1 E1)
                 (= I1 F1)
                 (= J1 G1)
                 (= (+ G (* (- 1.0) N1)) (- 1.0))))
      (a!57 (and A
                 (not B)
                 C
                 (not D)
                 (not L2)
                 M2
                 N2
                 O2
                 a!55
                 (<= 9.0 N1)
                 (not (= F2 G1))
                 (= E L1)
                 (= F M1)
                 (= J Q1)
                 (= K R1)
                 (= L S1)
                 (= M T1)
                 (= N U1)
                 (= O V1)
                 (= P W1)
                 (= Q X1)
                 (= R Y1)
                 (= S Z1)
                 (= T A2)
                 (= U B2)
                 (= V C2)
                 (= W D2)
                 (= X E2)
                 (= B1 I2)
                 (= C1 J2)
                 (= D1 K2)
                 (= H1 E1)
                 (= I1 F1)
                 (= J1 G1)
                 (= (+ G (* (- 1.0) N1)) (- 1.0)))))
(let ((a!10 (and (or (and (or a!7 a!8) (= L T2)) a!9) (= K W2)))
      (a!41 (and (or (and (or a!38 a!39) (= L S1)) a!40) (= K R1))))
(let ((a!14 (and (or (and (or a!10 a!11) (= F1 P2)) a!12)
                 a!13
                 (<= 9.0 H1)
                 (= C2 0.0)
                 (= L1 P2)
                 (= M1 C2)
                 (= M1 G1)
                 (= (+ H1 (* (- 1.0) E1)) 1.0)))
      (a!15 (and (or (and (or a!10 a!11) (= F1 P2)) a!12)
                 a!13
                 (<= 9.0 H1)
                 (not (= C2 0.0))
                 (= C2 1.0)
                 (= L1 W2)
                 (= M1 C2)
                 (= M1 G1)
                 (= (+ H1 (* (- 1.0) E1)) 1.0)))
      (a!16 (and (or (and (or a!10 a!11) (= F1 P2)) a!12)
                 a!13
                 (<= 9.0 H1)
                 (not (= C2 0.0))
                 (= C2 2.0)
                 (not (= C2 1.0))
                 (= L1 T2)
                 (= M1 C2)
                 (= M1 G1)
                 (= (+ H1 (* (- 1.0) E1)) 1.0)))
      (a!17 (and (or (and (or a!10 a!11) (= F1 P2)) a!12)
                 a!13
                 (<= 9.0 H1)
                 (not (= C2 0.0))
                 (= C2 3.0)
                 (not (= C2 2.0))
                 (not (= C2 1.0))
                 (= L1 Q2)
                 (= M1 C2)
                 (= M1 G1)
                 (= (+ H1 (* (- 1.0) E1)) 1.0)))
      (a!18 (and (or (and (or a!10 a!11) (= F1 P2)) a!12)
                 a!13
                 (<= 9.0 H1)
                 (not (= C2 0.0))
                 (= C2 4.0)
                 (not (= C2 3.0))
                 (not (= C2 2.0))
                 (not (= C2 1.0))
                 (= L1 R2)
                 (= M1 C2)
                 (= M1 G1)
                 (= (+ H1 (* (- 1.0) E1)) 1.0)))
      (a!19 (and (or (and (or a!10 a!11) (= F1 P2)) a!12)
                 a!13
                 (<= 9.0 H1)
                 (not (= C2 0.0))
                 (= C2 5.0)
                 (not (= C2 4.0))
                 (not (= C2 3.0))
                 (not (= C2 2.0))
                 (not (= C2 1.0))
                 (= L1 X2)
                 (= M1 C2)
                 (= M1 G1)
                 (= (+ H1 (* (- 1.0) E1)) 1.0)))
      (a!20 (and (or (and (or a!10 a!11) (= F1 P2)) a!12)
                 a!13
                 (<= 9.0 H1)
                 (not (= C2 0.0))
                 (= C2 6.0)
                 (not (= C2 5.0))
                 (not (= C2 4.0))
                 (not (= C2 3.0))
                 (not (= C2 2.0))
                 (not (= C2 1.0))
                 (= L1 V2)
                 (= M1 C2)
                 (= M1 G1)
                 (= (+ H1 (* (- 1.0) E1)) 1.0)))
      (a!21 (and (or (and (or a!10 a!11) (= F1 P2)) a!12)
                 a!13
                 (<= 9.0 H1)
                 (not (= C2 0.0))
                 (= C2 7.0)
                 (not (= C2 6.0))
                 (not (= C2 5.0))
                 (not (= C2 4.0))
                 (not (= C2 3.0))
                 (not (= C2 2.0))
                 (not (= C2 1.0))
                 (= L1 S2)
                 (= M1 C2)
                 (= M1 G1)
                 (= (+ H1 (* (- 1.0) E1)) 1.0)))
      (a!22 (and (or (and (or a!10 a!11) (= F1 P2)) a!12)
                 a!13
                 (<= 9.0 H1)
                 (not (= C2 0.0))
                 (= C2 8.0)
                 (not (= C2 7.0))
                 (not (= C2 6.0))
                 (not (= C2 5.0))
                 (not (= C2 4.0))
                 (not (= C2 3.0))
                 (not (= C2 2.0))
                 (not (= C2 1.0))
                 (= L1 U2)
                 (= M1 C2)
                 (= M1 G1)
                 (= (+ H1 (* (- 1.0) E1)) 1.0)))
      (a!44 (and A
                 (not B)
                 (not C)
                 (not D)
                 (not L2)
                 (not M2)
                 (not N2)
                 O2
                 (or (and (or a!41 a!42) (= I1 F1)) a!43)
                 (not (<= 9.0 H1))
                 (= E L1)
                 (= F M1)
                 (= G N1)
                 (= H O1)
                 (= I P1)
                 (= J Q1)
                 (= T A2)
                 (= V C2)
                 (= W D2)
                 (= X E2)
                 (= Y F2)
                 (= Z G2)
                 (= A1 H2)
                 (= B1 I2)
                 (= C1 J2)
                 (= D1 K2)
                 (= J1 G1)
                 (= (+ H1 (* (- 1.0) E1)) 1.0)))
      (a!45 (and (or (and (or a!41 a!42) (= I1 F1)) a!43)
                 a!13
                 (<= 9.0 H1)
                 (= C2 0.0)
                 (= I1 L1)
                 (= M1 C2)
                 (= M1 G1)
                 (= (+ H1 (* (- 1.0) E1)) 1.0)))
      (a!46 (and (or (and (or a!41 a!42) (= I1 F1)) a!43)
                 a!13
                 (<= 9.0 H1)
                 (not (= C2 0.0))
                 (= C2 1.0)
                 (= L1 R1)
                 (= M1 C2)
                 (= M1 G1)
                 (= (+ H1 (* (- 1.0) E1)) 1.0)))
      (a!47 (and (or (and (or a!41 a!42) (= I1 F1)) a!43)
                 a!13
                 (<= 9.0 H1)
                 (not (= C2 0.0))
                 (= C2 2.0)
                 (not (= C2 1.0))
                 (= L1 S1)
                 (= M1 C2)
                 (= M1 G1)
                 (= (+ H1 (* (- 1.0) E1)) 1.0)))
      (a!48 (and (or (and (or a!41 a!42) (= I1 F1)) a!43)
                 a!13
                 (<= 9.0 H1)
                 (not (= C2 0.0))
                 (= C2 3.0)
                 (not (= C2 2.0))
                 (not (= C2 1.0))
                 (= L1 T1)
                 (= M1 C2)
                 (= M1 G1)
                 (= (+ H1 (* (- 1.0) E1)) 1.0)))
      (a!49 (and (or (and (or a!41 a!42) (= I1 F1)) a!43)
                 a!13
                 (<= 9.0 H1)
                 (not (= C2 0.0))
                 (= C2 4.0)
                 (not (= C2 3.0))
                 (not (= C2 2.0))
                 (not (= C2 1.0))
                 (= L1 U1)
                 (= M1 C2)
                 (= M1 G1)
                 (= (+ H1 (* (- 1.0) E1)) 1.0)))
      (a!50 (and (or (and (or a!41 a!42) (= I1 F1)) a!43)
                 a!13
                 (<= 9.0 H1)
                 (not (= C2 0.0))
                 (= C2 5.0)
                 (not (= C2 4.0))
                 (not (= C2 3.0))
                 (not (= C2 2.0))
                 (not (= C2 1.0))
                 (= L1 V1)
                 (= M1 C2)
                 (= M1 G1)
                 (= (+ H1 (* (- 1.0) E1)) 1.0)))
      (a!51 (and (or (and (or a!41 a!42) (= I1 F1)) a!43)
                 a!13
                 (<= 9.0 H1)
                 (not (= C2 0.0))
                 (= C2 6.0)
                 (not (= C2 5.0))
                 (not (= C2 4.0))
                 (not (= C2 3.0))
                 (not (= C2 2.0))
                 (not (= C2 1.0))
                 (= L1 W1)
                 (= M1 C2)
                 (= M1 G1)
                 (= (+ H1 (* (- 1.0) E1)) 1.0)))
      (a!52 (and (or (and (or a!41 a!42) (= I1 F1)) a!43)
                 a!13
                 (<= 9.0 H1)
                 (not (= C2 0.0))
                 (= C2 7.0)
                 (not (= C2 6.0))
                 (not (= C2 5.0))
                 (not (= C2 4.0))
                 (not (= C2 3.0))
                 (not (= C2 2.0))
                 (not (= C2 1.0))
                 (= L1 X1)
                 (= M1 C2)
                 (= M1 G1)
                 (= (+ H1 (* (- 1.0) E1)) 1.0)))
      (a!53 (and (or (and (or a!41 a!42) (= I1 F1)) a!43)
                 a!13
                 (<= 9.0 H1)
                 (not (= C2 0.0))
                 (= C2 8.0)
                 (not (= C2 7.0))
                 (not (= C2 6.0))
                 (not (= C2 5.0))
                 (not (= C2 4.0))
                 (not (= C2 3.0))
                 (not (= C2 2.0))
                 (not (= C2 1.0))
                 (= L1 Y1)
                 (= M1 C2)
                 (= M1 G1)
                 (= (+ H1 (* (- 1.0) E1)) 1.0)))
      (a!58 (and A
                 (not B)
                 (not C)
                 (not D)
                 (not L2)
                 (not M2)
                 N2
                 O2
                 (or (and (or a!41 a!42) (= I1 F1)) a!43)
                 a!13
                 (<= 9.0 H1)
                 (not (= C2 0.0))
                 (not (= C2 8.0))
                 (not (= C2 7.0))
                 (not (= C2 6.0))
                 (not (= C2 5.0))
                 (not (= C2 4.0))
                 (not (= C2 3.0))
                 (not (= C2 2.0))
                 (not (= C2 1.0))
                 (= E L1)
                 (= G N1)
                 (= H O1)
                 (= I P1)
                 (= J Q1)
                 (= T A2)
                 (= W D2)
                 (= X E2)
                 (= Y F2)
                 (= Z G2)
                 (= A1 H2)
                 (= B1 I2)
                 (= C1 J2)
                 (= D1 K2)
                 (= J1 G1)
                 (= M1 C2)
                 (= M1 G1)
                 (= (+ H1 (* (- 1.0) E1)) 1.0))))
(let ((a!23 (or a!14 a!15 a!16 a!17 a!18 a!19 a!20 a!21 a!22)))
(let ((a!24 (or (and a!23
                     (= X1 K2)
                     (= A2 E2)
                     (= A2 U2)
                     (not (= D2 0.0))
                     (= D2 7.0)
                     (not (= D2 6.0))
                     (not (= D2 5.0))
                     (not (= D2 4.0))
                     (not (= D2 3.0))
                     (not (= D2 2.0))
                     (not (= D2 1.0))
                     (= E2 K2)
                     (= L1 J2)
                     (= M1 D2))
                (and a!23
                     (= X1 S2)
                     (= A2 E2)
                     (= A2 U2)
                     (not (= D2 0.0))
                     (= D2 8.0)
                     (not (= D2 7.0))
                     (not (= D2 6.0))
                     (not (= D2 5.0))
                     (not (= D2 4.0))
                     (not (= D2 3.0))
                     (not (= D2 2.0))
                     (not (= D2 1.0))
                     (= E2 K2)
                     (= L1 J2)
                     (= M1 D2)))))
(let ((a!25 (or (and a!24 (= W1 V2))
                (and a!23
                     (= W1 K2)
                     (= X1 S2)
                     (= A2 E2)
                     (= A2 U2)
                     (not (= D2 0.0))
                     (= D2 6.0)
                     (not (= D2 5.0))
                     (not (= D2 4.0))
                     (not (= D2 3.0))
                     (not (= D2 2.0))
                     (not (= D2 1.0))
                     (= E2 K2)
                     (= L1 J2)
                     (= M1 D2)))))
(let ((a!26 (or (and a!25 (= V1 X2))
                (and a!23
                     (= V1 K2)
                     (= W1 V2)
                     (= X1 S2)
                     (= A2 E2)
                     (= A2 U2)
                     (not (= D2 0.0))
                     (= D2 5.0)
                     (not (= D2 4.0))
                     (not (= D2 3.0))
                     (not (= D2 2.0))
                     (not (= D2 1.0))
                     (= E2 K2)
                     (= L1 J2)
                     (= M1 D2)))))
(let ((a!27 (or (and a!26 (= U1 R2))
                (and a!23
                     (= V1 X2)
                     (= W1 V2)
                     (= X1 S2)
                     (= A2 E2)
                     (= A2 U2)
                     (not (= D2 0.0))
                     (= D2 4.0)
                     (not (= D2 3.0))
                     (not (= D2 2.0))
                     (not (= D2 1.0))
                     (= E2 K2)
                     (= L1 J2)
                     (= M1 D2)
                     (= U1 K2)))))
(let ((a!28 (or (and a!27 (= T1 Q2))
                (and a!23
                     (= V1 X2)
                     (= W1 V2)
                     (= X1 S2)
                     (= A2 E2)
                     (= A2 U2)
                     (not (= D2 0.0))
                     (= D2 3.0)
                     (not (= D2 2.0))
                     (not (= D2 1.0))
                     (= E2 K2)
                     (= L1 J2)
                     (= M1 D2)
                     (= T1 K2)
                     (= U1 R2)))))
(let ((a!29 (or (and a!28 (= S1 T2))
                (and a!23
                     (= V1 X2)
                     (= W1 V2)
                     (= X1 S2)
                     (= A2 E2)
                     (= A2 U2)
                     (not (= D2 0.0))
                     (= D2 2.0)
                     (not (= D2 1.0))
                     (= E2 K2)
                     (= L1 J2)
                     (= M1 D2)
                     (= S1 K2)
                     (= T1 Q2)
                     (= U1 R2)))))
(let ((a!30 (or (and a!29 (= R1 W2))
                (and a!23
                     (= V1 X2)
                     (= W1 V2)
                     (= X1 S2)
                     (= A2 E2)
                     (= A2 U2)
                     (not (= D2 0.0))
                     (= D2 1.0)
                     (= E2 K2)
                     (= L1 J2)
                     (= M1 D2)
                     (= R1 K2)
                     (= S1 T2)
                     (= T1 Q2)
                     (= U1 R2)))))
(let ((a!31 (and A
                 (not B)
                 (not C)
                 (not D)
                 (not L2)
                 M2
                 (not N2)
                 O2
                 (or (and a!30 (= I1 P2))
                     (and a!23
                          (= V1 X2)
                          (= W1 V2)
                          (= X1 S2)
                          (= A2 E2)
                          (= A2 U2)
                          (= D2 0.0)
                          (= E2 K2)
                          (= I1 K2)
                          (= L1 J2)
                          (= M1 D2)
                          (= R1 W2)
                          (= S1 T2)
                          (= T1 Q2)
                          (= U1 R2)))
                 (= F2 0.0)
                 (= G2 0.0)
                 (= H O1)
                 (= I P1)
                 (= A1 H2)
                 (= B1 I2)
                 (= J1 G1)
                 (= N1 0.0)
                 (= Q1 Y1)
                 (= Q1 J2))))
  (or (and A (not B) (not C) D L2 (not M2) (not N2) O2)
      a!31
      a!44
      (and A
           (not B)
           (not C)
           (not D)
           (not L2)
           M2
           (not N2)
           (not O2)
           (or a!45 a!46 a!47 a!48 a!49 a!50 a!51 a!52 a!53)
           (= Y1 A2)
           (= A2 E2)
           (not (= D2 0.0))
           (not (= D2 8.0))
           (not (= D2 7.0))
           (not (= D2 6.0))
           (not (= D2 5.0))
           (not (= D2 4.0))
           (not (= D2 3.0))
           (not (= D2 2.0))
           (not (= D2 1.0))
           (= E2 K2)
           (= G N1)
           (= H O1)
           (= I P1)
           (= J Q1)
           (= Y F2)
           (= Z G2)
           (= A1 H2)
           (= B1 I2)
           (= J1 G1)
           (= L1 J2)
           (= M1 D2))
      a!56
      a!57
      (and (not A)
           (not B)
           C
           (not D)
           L2
           (not M2)
           (not N2)
           O2
           (= E L1)
           (= F M1)
           (= G N1)
           (= H O1)
           (= I P1)
           (= J Q1)
           (= K R1)
           (= L S1)
           (= M T1)
           (= N U1)
           (= O V1)
           (= P W1)
           (= Q X1)
           (= R Y1)
           (= S Z1)
           (= T A2)
           (= U B2)
           (= V C2)
           (= W D2)
           (= X E2)
           (= Y F2)
           (= Z G2)
           (= A1 H2)
           (= B1 I2)
           (= C1 J2)
           (= D1 K2)
           (= H1 E1)
           (= I1 F1)
           (= J1 G1))
      (and (not A)
           B
           (not C)
           (not D)
           L2
           (not M2)
           (not N2)
           O2
           (= E L1)
           (= F M1)
           (= G N1)
           (= H O1)
           (= I P1)
           (= J Q1)
           (= K R1)
           (= L S1)
           (= M T1)
           (= N U1)
           (= O V1)
           (= P W1)
           (= Q X1)
           (= R Y1)
           (= S Z1)
           (= T A2)
           (= U B2)
           (= V C2)
           (= W D2)
           (= X E2)
           (= Y F2)
           (= Z G2)
           (= A1 H2)
           (= B1 I2)
           (= C1 J2)
           (= D1 K2)
           (= H1 E1)
           (= I1 F1)
           (= J1 G1))
      (and (not A)
           B
           C
           (not D)
           L2
           (not M2)
           (not N2)
           O2
           (= E L1)
           (= F M1)
           (= G N1)
           (= H O1)
           (= I P1)
           (= J Q1)
           (= K R1)
           (= L S1)
           (= M T1)
           (= N U1)
           (= O V1)
           (= P W1)
           (= Q X1)
           (= R Y1)
           (= S Z1)
           (= T A2)
           (= U B2)
           (= V C2)
           (= W D2)
           (= X E2)
           (= Y F2)
           (= Z G2)
           (= A1 H2)
           (= B1 I2)
           (= C1 J2)
           (= D1 K2)
           (= H1 E1)
           (= I1 F1)
           (= J1 G1))
      (and A
           B
           (not C)
           (not D)
           L2
           (not M2)
           (not N2)
           O2
           (= E L1)
           (= F M1)
           (= G N1)
           (= H O1)
           (= I P1)
           (= J Q1)
           (= K R1)
           (= L S1)
           (= M T1)
           (= N U1)
           (= O V1)
           (= P W1)
           (= Q X1)
           (= R Y1)
           (= S Z1)
           (= T A2)
           (= U B2)
           (= V C2)
           (= W D2)
           (= X E2)
           (= Y F2)
           (= Z G2)
           (= A1 H2)
           (= B1 I2)
           (= C1 J2)
           (= D1 K2)
           (= H1 E1)
           (= I1 F1)
           (= J1 G1))
      (and A
           B
           C
           (not D)
           L2
           (not M2)
           (not N2)
           O2
           (= E L1)
           (= F M1)
           (= G N1)
           (= H O1)
           (= I P1)
           (= J Q1)
           (= K R1)
           (= L S1)
           (= M T1)
           (= N U1)
           (= O V1)
           (= P W1)
           (= Q X1)
           (= R Y1)
           (= S Z1)
           (= T A2)
           (= U B2)
           (= V C2)
           (= W D2)
           (= X E2)
           (= Y F2)
           (= Z G2)
           (= A1 H2)
           (= B1 I2)
           (= C1 J2)
           (= D1 K2)
           (= H1 E1)
           (= I1 F1)
           (= J1 G1))
      (and (not A)
           (not B)
           (not C)
           (not D)
           (not L2)
           (not M2)
           (not N2)
           O2
           (= E L1)
           (= F M1)
           (= G N1)
           (= H O1)
           (= I P1)
           (= J Q1)
           (= K R1)
           (= L S1)
           (= M T1)
           (= N U1)
           (= O V1)
           (= P W1)
           (= Q X1)
           (= R Y1)
           (= S Z1)
           (= T A2)
           (= U B2)
           (= V C2)
           (= W D2)
           (= X E2)
           (= Y F2)
           (= Z G2)
           (= A1 H2)
           (= B1 I2)
           (= C1 J2)
           (= D1 K2)
           (= H1 0.0)
           (= I1 0.0)
           (= J1 K1))
      a!58
      a!59
      (and A
           (not B)
           C
           (not D)
           (not L2)
           M2
           N2
           (not O2)
           (not (= H2 0.0))
           (not (= H2 8.0))
           (not (= H2 7.0))
           (not (= H2 6.0))
           (not (= H2 5.0))
           (not (= H2 4.0))
           (not (= H2 3.0))
           (not (= H2 2.0))
           (not (= H2 1.0))
           (= E L1)
           (= F M1)
           (= G H2)
           (= G N1)
           (= H O1)
           (= I P1)
           (= J Q1)
           (= K R1)
           (= L S1)
           (= M T1)
           (= N U1)
           (= O V1)
           (= P W1)
           (= Q X1)
           (= R Y1)
           (= S Z1)
           (= T A2)
           (= U B2)
           (= V C2)
           (= W D2)
           (= X E2)
           (= Y F2)
           (= Z G2)
           (= B1 I2)
           (= C1 J2)
           (= D1 K2)
           (= H1 E1)
           (= I1 F1)
           (= J1 G1)))))))))))))))))
      )
      (state O2
       N2
       M2
       L2
       L1
       M1
       N1
       O1
       P1
       Q1
       R1
       S1
       T1
       U1
       V1
       W1
       X1
       Y1
       Z1
       A2
       B2
       C2
       D2
       E2
       F2
       G2
       H2
       I2
       J2
       K2
       H1
       I1
       J1)
    )
  )
)
(assert
  (forall ( (A Bool) (B Bool) (C Bool) (D Bool) (E Real) (F Real) (G Real) (H Real) (I Real) (J Real) (K Real) (L Real) (M Real) (N Real) (O Real) (P Real) (Q Real) (R Real) (S Real) (T Real) (U Real) (V Real) (W Real) (X Real) (Y Real) (Z Real) (A1 Real) (B1 Real) (C1 Real) (D1 Real) (E1 Real) (F1 Real) (G1 Real) ) 
    (=>
      (and
        (state A B C D E F G H I J K L M N O P Q R S T U V W X Y Z A1 B1 C1 D1 E1 F1 G1)
        (and (not C) (not B) (= A true) (= D true))
      )
      false
    )
  )
)

(check-sat)
(exit)
